sat
(:max-memory          18.43
 :memory              18.33
 :nlsat-arith-var     2
 :nlsat-atoms         9
 :nlsat-bool-var      1
 :nlsat-clauses       7
 :nlsat-conflicts     2
 :nlsat-propagations  15
 :nlsat-stages        5
 :num-allocs          50802
 :rlimit-count        932
 :solve-eqs-elim-vars 1
 :solve-eqs-steps     6
 :time                0.00
 :total-time          0.01)
